language ESSENCE' 1.0

letting jobs = 102
letting horizon = 788
letting resourcesRenew = 2
letting resourcesNonrenew = 2
letting resourceLimits = [27, 29, 539, 522]
letting successors = [[2, 3, 4, 5, 6, 7, 8, 10, 11], [22, 21, 18, 16, 14, 12], [36, 25, 23, 21, 13, 9], [37, 23, 22, 21, 18, 16, 13], [29, 28, 18, 14, 12], [37, 36, 27, 22, 18, 13], [36, 25, 18, 17, 13], [29, 28, 26, 23, 22, 18, 15], [37, 34, 30, 28, 26, 24, 22, 19, 18], [28, 25, 24, 21, 17], [37, 29, 28, 26, 25, 24, 22], [46, 36, 25, 20, 17], [34, 33, 29, 28, 26, 24, 20], [37, 31, 27, 23, 20], [37, 34, 31, 24, 20], [46, 31, 30, 28, 27], [38, 37, 35, 34, 31, 30], [50, 46, 43, 40, 35, 33, 32], [45, 43, 32, 31], [35, 32, 30], [55, 30, 29], [53, 45, 43, 39, 38, 31], [24], [50, 49, 46, 45, 44, 43, 40, 35], [50, 45, 43, 34, 32], [50, 49, 44, 43, 40, 39, 35], [50, 45, 44, 43, 40, 32], [49, 44, 43, 39, 38, 35], [45, 44, 43, 42, 32], [53, 52, 50, 45, 44, 43, 42, 41, 40, 39], [50, 42, 40, 33], [57, 53, 49, 41, 39, 38], [59, 56, 55, 52, 51, 49, 44], [57, 55, 52, 51, 48, 47, 42], [57, 55, 53, 52, 42, 41], [57, 56, 49, 48, 45, 41], [56, 44, 43], [60, 59, 58, 56, 54, 52, 51], [69, 65, 62, 59, 58, 47], [69, 61, 60, 57, 54, 51], [61, 60, 59, 54, 51], [73, 71, 69, 67, 63, 60, 59, 58, 56], [62, 61, 59, 47], [69, 48, 47], [73, 71, 65, 63, 61, 60, 59, 54], [73, 63, 62, 61, 60, 57, 54], [73, 71, 68, 63, 60, 54], [71, 68, 67, 66, 64, 63, 61, 60], [81, 73, 71, 69, 68, 66, 60, 58], [81, 73, 70, 67, 62, 57], [73, 71, 70, 68, 65, 64, 63, 62], [73, 71, 68, 67, 63, 62, 61], [80, 73, 68, 67, 66, 61], [81, 80, 79, 75, 70, 67, 66, 64], [68, 66, 65, 62], [79, 75, 70, 66, 65, 64], [79, 71, 68, 66, 64], [79, 75, 74, 70, 64], [93, 81, 80, 78, 74, 68], [101, 78, 75, 74, 70], [101, 93, 84, 81, 79, 78, 77, 76, 75], [94, 80, 79, 78, 72], [101, 83, 81, 80, 78, 74], [101, 100, 94, 93, 92, 84, 83, 82, 78, 76], [101, 94, 93, 92, 91, 85, 84, 83, 81, 77], [101, 93, 83, 74], [101, 85, 72], [101, 92, 85, 77, 76, 75], [101, 84, 80, 77, 75], [85, 72], [101, 100, 92, 91, 84, 83, 82, 78], [93, 92, 84, 83, 77, 76], [101, 100, 94, 92, 91, 85, 84, 82], [92, 85, 84, 77, 76], [100, 94, 91, 90, 87, 83], [99, 91, 90, 89, 88, 87, 86], [100, 98, 89, 82], [99, 89, 85], [98, 90, 89, 88, 86], [98, 92, 91, 86], [100, 97, 96, 88, 87], [99, 90, 88, 86], [99, 98, 88, 86], [89, 87, 86], [98, 88, 86], [97, 96], [98, 95], [95], [95], [96], [95], [99], [95], [96], [102], [102], [102], [102], [102], [102], [102], []]
letting durations = [[0], [1, 5, 9], [2, 2, 3], [3, 5, 7], [3, 4, 7], [5, 6, 9], [2, 4, 10], [5, 6, 8], [7, 7, 10], [5, 9, 10], [2, 9, 9], [4, 5, 6], [1, 5, 9], [2, 8, 9], [2, 8, 9], [4, 7, 10], [4, 7, 8], [4, 6, 10], [1, 3, 4], [3, 3, 6], [1, 6, 7], [3, 6, 7], [2, 6, 7], [3, 8, 10], [6, 7, 10], [2, 5, 8], [5, 7, 9], [6, 7, 8], [1, 6, 7], [1, 6, 7], [1, 4, 7], [1, 4, 10], [7, 9, 10], [3, 8, 9], [4, 7, 10], [7, 7, 8], [1, 8, 10], [3, 7, 10], [2, 3, 7], [6, 7, 9], [5, 10, 10], [1, 8, 9], [2, 6, 8], [2, 3, 6], [7, 7, 8], [1, 1, 5], [2, 8, 8], [2, 4, 7], [3, 8, 9], [6, 7, 10], [1, 6, 6], [9, 10, 10], [1, 4, 7], [2, 5, 9], [1, 4, 7], [3, 7, 8], [3, 3, 4], [3, 4, 9], [2, 3, 4], [1, 2, 4], [3, 8, 8], [1, 6, 7], [2, 3, 6], [7, 7, 8], [5, 7, 10], [4, 6, 10], [4, 6, 7], [1, 4, 6], [6, 6, 8], [2, 3, 9], [6, 7, 9], [6, 7, 9], [1, 7, 8], [1, 3, 6], [3, 3, 5], [4, 6, 7], [1, 8, 10], [5, 5, 10], [1, 3, 9], [1, 4, 7], [7, 9, 10], [3, 3, 6], [2, 3, 4], [1, 5, 6], [2, 4, 10], [2, 3, 3], [5, 6, 10], [1, 2, 3], [2, 10, 10], [3, 5, 9], [1, 6, 10], [8, 9, 9], [3, 5, 8], [2, 2, 9], [3, 5, 8], [2, 5, 9], [1, 6, 8], [2, 3, 4], [3, 5, 9], [6, 7, 8], [2, 4, 5], [0]]
letting resourceUsage = [[[0, 0, 0, 0]], [[5, 0, 4, 9], [3, 0, 4, 8], [3, 0, 4, 7]], [[0, 3, 2, 8], [2, 0, 2, 5], [1, 0, 2, 4]], [[5, 0, 7, 10], [3, 0, 5, 8], [0, 1, 5, 7]], [[4, 0, 3, 5], [0, 1, 2, 5], [3, 0, 1, 3]], [[5, 0, 7, 9], [0, 4, 7, 6], [5, 0, 7, 2]], [[3, 0, 8, 10], [0, 1, 6, 4], [0, 1, 5, 2]], [[3, 0, 7, 3], [0, 1, 7, 3], [3, 0, 7, 2]], [[3, 0, 9, 9], [0, 4, 9, 8], [0, 3, 9, 7]], [[0, 2, 4, 2], [4, 0, 3, 2], [4, 0, 3, 1]], [[0, 3, 4, 9], [0, 3, 3, 8], [4, 0, 1, 8]], [[0, 3, 9, 9], [0, 3, 9, 8], [0, 2, 9, 4]], [[2, 0, 5, 6], [0, 1, 5, 6], [0, 1, 5, 1]], [[0, 5, 1, 9], [2, 0, 1, 4], [0, 5, 1, 1]], [[0, 5, 7, 4], [4, 0, 6, 2], [4, 0, 3, 2]], [[2, 0, 6, 7], [2, 0, 6, 6], [0, 4, 6, 5]], [[4, 0, 7, 5], [0, 3, 7, 3], [0, 2, 5, 3]], [[0, 2, 10, 5], [1, 0, 8, 5], [0, 2, 5, 5]], [[3, 0, 10, 9], [0, 3, 8, 6], [0, 2, 8, 4]], [[2, 0, 8, 4], [0, 5, 7, 4], [2, 0, 6, 4]], [[0, 4, 7, 10], [2, 0, 6, 10], [2, 0, 5, 10]], [[1, 0, 10, 7], [1, 0, 9, 4], [0, 2, 7, 3]], [[3, 0, 6, 10], [3, 0, 5, 7], [3, 0, 4, 5]], [[5, 0, 6, 9], [0, 4, 3, 8], [5, 0, 3, 5]], [[2, 0, 5, 6], [1, 0, 3, 6], [1, 0, 2, 6]], [[3, 0, 10, 3], [3, 0, 8, 1], [0, 3, 8, 1]], [[0, 4, 10, 2], [3, 0, 8, 1], [0, 4, 6, 1]], [[0, 4, 8, 4], [0, 2, 6, 3], [0, 2, 6, 2]], [[0, 4, 2, 10], [3, 0, 2, 7], [0, 2, 1, 7]], [[0, 1, 5, 10], [1, 0, 5, 10], [0, 1, 5, 9]], [[0, 3, 6, 10], [2, 0, 5, 10], [0, 2, 5, 10]], [[5, 0, 5, 4], [0, 3, 4, 3], [0, 2, 4, 3]], [[0, 3, 9, 1], [3, 0, 6, 2], [3, 0, 6, 1]], [[0, 5, 5, 10], [1, 0, 4, 4], [1, 0, 4, 2]], [[0, 4, 8, 7], [0, 4, 6, 6], [2, 0, 6, 5]], [[0, 3, 9, 6], [2, 0, 5, 5], [2, 0, 4, 5]], [[3, 0, 9, 7], [3, 0, 9, 5], [2, 0, 9, 5]], [[0, 4, 5, 7], [2, 0, 5, 5], [0, 4, 3, 2]], [[0, 2, 5, 4], [1, 0, 4, 4], [0, 2, 3, 3]], [[5, 0, 4, 1], [0, 4, 4, 2], [0, 4, 4, 1]], [[0, 1, 8, 9], [0, 1, 6, 5], [1, 0, 4, 4]], [[0, 4, 4, 6], [0, 3, 3, 4], [2, 0, 2, 2]], [[0, 3, 10, 7], [0, 3, 7, 7], [2, 0, 6, 6]], [[2, 0, 8, 5], [1, 0, 7, 4], [1, 0, 5, 4]], [[0, 4, 10, 5], [4, 0, 10, 4], [0, 2, 10, 2]], [[3, 0, 8, 2], [0, 4, 6, 2], [0, 4, 5, 2]], [[3, 0, 7, 10], [0, 3, 6, 9], [2, 0, 3, 8]], [[0, 4, 2, 8], [4, 0, 2, 5], [0, 4, 2, 3]], [[0, 4, 10, 5], [2, 0, 8, 4], [0, 3, 7, 2]], [[0, 4, 4, 5], [4, 0, 3, 5], [2, 0, 2, 5]], [[0, 4, 2, 3], [2, 0, 1, 2], [0, 3, 1, 2]], [[0, 4, 9, 10], [0, 4, 7, 9], [5, 0, 7, 8]], [[0, 1, 2, 9], [3, 0, 1, 7], [0, 1, 1, 6]], [[1, 0, 9, 8], [0, 4, 8, 5], [0, 3, 8, 3]], [[0, 5, 7, 8], [4, 0, 4, 5], [4, 0, 4, 4]], [[3, 0, 7, 10], [3, 0, 5, 4], [0, 2, 5, 3]], [[0, 3, 9, 6], [3, 0, 6, 4], [3, 0, 3, 1]], [[0, 2, 7, 4], [3, 0, 6, 3], [0, 2, 2, 2]], [[0, 3, 6, 6], [2, 0, 3, 6], [2, 0, 2, 6]], [[3, 0, 3, 9], [2, 0, 3, 9], [2, 0, 2, 9]], [[2, 0, 7, 5], [0, 2, 6, 3], [1, 0, 4, 3]], [[4, 0, 6, 9], [4, 0, 5, 5], [0, 1, 5, 5]], [[0, 4, 8, 4], [0, 4, 4, 3], [4, 0, 2, 2]], [[0, 4, 5, 5], [2, 0, 5, 4], [2, 0, 5, 3]], [[4, 0, 3, 8], [3, 0, 3, 8], [2, 0, 3, 8]], [[0, 1, 6, 1], [0, 1, 4, 2], [0, 1, 4, 1]], [[0, 3, 6, 7], [0, 3, 6, 5], [0, 1, 6, 5]], [[3, 0, 10, 8], [0, 1, 7, 6], [2, 0, 6, 6]], [[3, 0, 5, 8], [0, 3, 5, 4], [2, 0, 4, 3]], [[2, 0, 3, 7], [0, 2, 1, 5], [0, 2, 1, 3]], [[0, 5, 8, 6], [0, 5, 5, 5], [0, 5, 2, 5]], [[3, 0, 5, 5], [3, 0, 4, 4], [0, 2, 4, 4]], [[0, 1, 3, 8], [0, 1, 2, 7], [0, 1, 2, 6]], [[3, 0, 8, 9], [0, 4, 5, 7], [2, 0, 3, 6]], [[0, 3, 4, 3], [3, 0, 3, 3], [2, 0, 3, 2]], [[4, 0, 5, 4], [0, 3, 4, 4], [0, 2, 2, 4]], [[5, 0, 7, 3], [4, 0, 6, 2], [0, 2, 5, 2]], [[0, 2, 3, 9], [1, 0, 2, 8], [1, 0, 2, 7]], [[0, 3, 9, 5], [1, 0, 7, 5], [1, 0, 5, 4]], [[0, 1, 4, 7], [3, 0, 4, 5], [3, 0, 2, 5]], [[5, 0, 7, 5], [5, 0, 5, 4], [0, 2, 3, 4]], [[4, 0, 9, 7], [0, 3, 5, 5], [0, 2, 4, 2]], [[4, 0, 5, 8], [4, 0, 3, 8], [0, 3, 3, 8]], [[0, 5, 9, 7], [3, 0, 8, 5], [3, 0, 5, 4]], [[2, 0, 4, 6], [1, 0, 3, 6], [0, 2, 2, 4]], [[4, 0, 6, 5], [0, 2, 5, 5], [2, 0, 4, 1]], [[0, 2, 9, 5], [0, 2, 8, 4], [5, 0, 6, 3]], [[0, 4, 7, 6], [0, 3, 6, 6], [0, 3, 5, 6]], [[3, 0, 8, 7], [0, 1, 6, 7], [2, 0, 4, 2]], [[3, 0, 5, 10], [3, 0, 4, 5], [3, 0, 2, 3]], [[5, 0, 9, 8], [0, 3, 9, 7], [0, 2, 9, 6]], [[4, 0, 7, 5], [0, 2, 6, 3], [3, 0, 5, 3]], [[4, 0, 7, 5], [4, 0, 3, 4], [0, 2, 3, 1]], [[0, 3, 9, 2], [1, 0, 8, 1], [0, 1, 5, 1]], [[0, 3, 8, 8], [0, 1, 3, 7], [5, 0, 3, 7]], [[0, 2, 7, 4], [1, 0, 7, 2], [0, 1, 6, 2]], [[3, 0, 7, 3], [2, 0, 6, 2], [1, 0, 5, 2]], [[2, 0, 9, 8], [2, 0, 7, 6], [0, 4, 3, 5]], [[0, 4, 8, 5], [0, 3, 6, 2], [0, 3, 4, 1]], [[0, 4, 6, 6], [0, 3, 5, 5], [0, 3, 5, 4]], [[0, 3, 8, 5], [1, 0, 6, 4], [0, 1, 1, 4]], [[0, 0, 0, 0]]]
